509
398
413
304
273
499
495
224
439
480
534
403
332
353
505
416
522
473
444
312
379
376
414
443
344
393
583
508
320
489
533
265
660
411
421
429
316
373
611
483
308
427
606
439
408
380
575
495
215
424
581
326
310
357
501
616
501
349
560
368
261
410
343
526
317
301
403
673
635
423
338
534
610
382
202
355
786
290
464
644
397
331
389
454
317
420
329
1141
732
485
267
413
407
532
656
448
357
523
443
334
